data/CVRP/cvrplib-Set-XML100/generated_instances/XML500_1311_01.vrp
NAME : XML500_1311_01
COMMENT : Generated as the XML100 dataset from the CVRPLIB
TYPE : CVRP
DIMENSION : 501
EDGE_WEIGHT_TYPE : EUC_2D
CAPACITY : 4
NODE_COORD_SECTION
1    821  782 
2    918  283 
3    105  854 
4    33   847 
5    245  586 
6    557  852 
7    104  745 
8    408  64  
9    173  170 
10   117  46  
11   658  858 
12   465  719 
13   861  966 
14   9    961 
15   712  456 
16   2    845 
17   402  379 
18   857  703 
19   78   584 
20   295  24  
21   304  2   
22   258  133 
23   583  567 
24   5    837 
25   254  19  
26   828  132 
27   138  347 
28   676  678 
29   777  837 
30   352  297 
31   74   847 
32   520  110 
33   365  236 
34   214  988 
35   496  832 
36   547  496 
37   619  664 
38   836  998 
39   695  632 
40   68   888 
41   233  49  
42   948  22  
43   719  687 
44   977  732 
45   55   945 
46   540  227 
47   880  561 
48   980  746 
49   657  650 
50   47   977 
51   567  604 
52   689  72  
53   43   845 
54   608  474 
55   728  301 
56   610  691 
57   11   731 
58   117  898 
59   675  640 
60   721  518 
61   309  601 
62   541  331 
63   426  857 
64   558  738 
65   667  654 
66   385  172 
67   123  828 
68   618  798 
69   144  860 
70   1    713 
71   485  116 
72   576  801 
73   707  628 
74   57   492 
75   132  922 
76   753  842 
77   944  657 
78   285  90  
79   164  456 
80   138  593 
81   743  29  
82   426  578 
83   218  274 
84   90   781 
85   627  339 
86   588  658 
87   605  967 
88   680  732 
89   651  705 
90   303  516 
91   117  902 
92   470  931 
93   840  977 
94   881  93  
95   675  662 
96   87   739 
97   710  638 
98   120  507 
99   244  48  
100  582  690 
101  424  680 
102  40   416 
103  997  798 
104  24   319 
105  828  611 
106  14   772 
107  111  970 
108  908  240 
109  105  905 
110  302  12  
111  38   604 
112  22   650 
113  175  847 
114  761  162 
115  720  637 
116  903  511 
117  666  684 
118  39   842 
119  612  713 
120  694  764 
121  96   815 
122  574  210 
123  86   136 
124  33   884 
125  742  41  
126  620  442 
127  399  443 
128  275  8   
129  92   817 
130  394  782 
131  646  436 
132  328  675 
133  177  375 
134  626  634 
135  392  40  
136  932  551 
137  758  524 
138  888  890 
139  32   798 
140  632  775 
141  492  661 
142  975  867 
143  82   762 
144  388  954 
145  662  174 
146  532  809 
147  462  94  
148  300  32  
149  106  328 
150  285  43  
151  629  607 
152  73   816 
153  273  87  
154  29   895 
155  551  553 
156  639  693 
157  335  830 
158  272  738 
159  785  2   
160  921  747 
161  355  116 
162  607  709 
163  936  903 
164  587  749 
165  368  55  
166  886  807 
167  27   808 
168  603  873 
169  24   928 
170  817  564 
171  637  606 
172  62   802 
173  297  49  
174  591  657 
175  589  822 
176  130  793 
177  299  58  
178  896  48  
179  439  218 
180  21   230 
181  776  657 
182  768  564 
183  907  960 
184  634  820 
185  18   978 
186  583  747 
187  608  691 
188  672  694 
189  85   888 
190  517  402 
191  772  790 
192  570  655 
193  18   160 
194  948  387 
195  117  468 
196  642  689 
197  890  373 
198  305  128 
199  653  707 
200  619  714 
201  621  742 
202  0    831 
203  526  352 
204  49   943 
205  258  43  
206  782  448 
207  601  800 
208  662  779 
209  345  38  
210  198  504 
211  248  761 
212  144  960 
213  355  79  
214  314  41  
215  38   790 
216  516  423 
217  355  88  
218  110  805 
219  816  711 
220  255  275 
221  5    392 
222  106  960 
223  35   491 
224  563  229 
225  102  190 
226  720  868 
227  172  514 
228  443  605 
229  914  855 
230  655  771 
231  232  12  
232  355  101 
233  789  204 
234  228  536 
235  71   171 
236  18   406 
237  44   315 
238  320  911 
239  310  290 
240  797  167 
241  181  563 
242  548  765 
243  523  690 
244  52   687 
245  313  72  
246  64   261 
247  425  151 
248  130  908 
249  22   26  
250  592  673 
251  630  547 
252  69   223 
253  601  996 
254  579  83  
255  104  882 
256  583  471 
257  604  930 
258  832  510 
259  320  88  
260  354  1   
261  816  413 
262  566  238 
263  440  260 
264  592  403 
265  879  78  
266  449  592 
267  522  1000
268  235  650 
269  92   876 
270  598  720 
271  625  701 
272  738  996 
273  961  507 
274  272  690 
275  663  593 
276  624  723 
277  908  500 
278  395  351 
279  598  185 
280  261  33  
281  639  748 
282  28   823 
283  35   880 
284  218  80  
285  999  645 
286  53   925 
287  694  436 
288  296  265 
289  156  770 
290  5    848 
291  647  608 
292  880  303 
293  521  630 
294  150  714 
295  605  611 
296  797  534 
297  622  780 
298  533  860 
299  311  11  
300  225  1000
301  170  637 
302  552  711 
303  65   602 
304  367  28  
305  958  990 
306  325  31  
307  486  137 
308  205  878 
309  606  804 
310  802  877 
311  317  939 
312  624  583 
313  667  652 
314  163  261 
315  404  58  
316  302  577 
317  376  346 
318  531  796 
319  605  89  
320  340  917 
321  528  461 
322  779  470 
323  404  691 
324  620  733 
325  329  508 
326  61   855 
327  273  91  
328  739  690 
329  561  903 
330  339  36  
331  861  261 
332  383  88  
333  20   841 
334  353  236 
335  511  17  
336  693  659 
337  540  974 
338  342  101 
339  690  918 
340  975  273 
341  501  750 
342  564  788 
343  76   866 
344  765  701 
345  172  672 
346  333  626 
347  112  816 
348  204  243 
349  499  29  
350  639  189 
351  676  476 
352  348  116 
353  74   389 
354  538  780 
355  866  963 
356  431  815 
357  30   480 
358  326  70  
359  921  288 
360  60   755 
361  641  728 
362  292  95  
363  8    574 
364  240  66  
365  779  460 
366  192  264 
367  591  656 
368  899  870 
369  575  657 
370  329  98  
371  580  772 
372  449  679 
373  432  519 
374  991  217 
375  117  629 
376  551  821 
377  681  680 
378  773  287 
379  686  609 
380  836  953 
381  628  686 
382  533  534 
383  275  675 
384  640  678 
385  561  623 
386  84   973 
387  690  755 
388  298  240 
389  279  663 
390  535  589 
391  646  694 
392  593  688 
393  102  868 
394  365  424 
395  212  102 
396  4    827 
397  290  12  
398  322  81  
399  204  107 
400  665  554 
401  104  923 
402  614  518 
403  728  512 
404  938  569 
405  552  942 
406  388  44  
407  66   649 
408  280  102 
409  46   847 
410  296  37  
411  149  36  
412  98   857 
413  307  55  
414  625  630 
415  237  414 
416  849  932 
417  992  432 
418  736  982 
419  521  38  
420  34   823 
421  141  64  
422  387  205 
423  34   841 
424  483  667 
425  73   930 
426  123  760 
427  839  222 
428  719  794 
429  438  543 
430  51   902 
431  378  83  
432  49   847 
433  388  807 
434  459  193 
435  336  113 
436  580  739 
437  540  666 
438  644  723 
439  902  390 
440  128  349 
441  644  741 
442  961  305 
443  373  912 
444  551  559 
445  93   876 
446  335  162 
447  143  715 
448  702  221 
449  816  871 
450  45   854 
451  260  742 
452  100  790 
453  450  732 
454  280  92  
455  655  774 
456  686  194 
457  606  625 
458  235  25  
459  197  169 
460  158  196 
461  892  411 
462  408  636 
463  511  710 
464  292  34  
465  214  96  
466  560  352 
467  436  972 
468  985  922 
469  630  694 
470  821  234 
471  461  89  
472  61   802 
473  747  879 
474  681  763 
475  17   463 
476  777  340 
477  469  614 
478  555  803 
479  607  575 
480  111  259 
481  204  963 
482  345  17  
483  531  720 
484  681  399 
485  693  224 
486  656  571 
487  700  668 
488  888  966 
489  150  848 
490  800  853 
491  599  683 
492  230  81  
493  975  296 
494  591  361 
495  628  737 
496  547  947 
497  340  41  
498  664  31  
499  786  545 
500  210  587 
501  638  805 
DEMAND_SECTION
1    0   
2    1   
3    1   
4    1   
5    1   
6    1   
7    1   
8    1   
9    1   
10   1   
11   1   
12   1   
13   1   
14   1   
15   1   
16   1   
17   1   
18   1   
19   1   
20   1   
21   1   
22   1   
23   1   
24   1   
25   1   
26   1   
27   1   
28   1   
29   1   
30   1   
31   1   
32   1   
33   1   
34   1   
35   1   
36   1   
37   1   
38   1   
39   1   
40   1   
41   1   
42   1   
43   1   
44   1   
45   1   
46   1   
47   1   
48   1   
49   1   
50   1   
51   1   
52   1   
53   1   
54   1   
55   1   
56   1   
57   1   
58   1   
59   1   
60   1   
61   1   
62   1   
63   1   
64   1   
65   1   
66   1   
67   1   
68   1   
69   1   
70   1   
71   1   
72   1   
73   1   
74   1   
75   1   
76   1   
77   1   
78   1   
79   1   
80   1   
81   1   
82   1   
83   1   
84   1   
85   1   
86   1   
87   1   
88   1   
89   1   
90   1   
91   1   
92   1   
93   1   
94   1   
95   1   
96   1   
97   1   
98   1   
99   1   
100  1   
101  1   
102  1   
103  1   
104  1   
105  1   
106  1   
107  1   
108  1   
109  1   
110  1   
111  1   
112  1   
113  1   
114  1   
115  1   
116  1   
117  1   
118  1   
119  1   
120  1   
121  1   
122  1   
123  1   
124  1   
125  1   
126  1   
127  1   
128  1   
129  1   
130  1   
131  1   
132  1   
133  1   
134  1   
135  1   
136  1   
137  1   
138  1   
139  1   
140  1   
141  1   
142  1   
143  1   
144  1   
145  1   
146  1   
147  1   
148  1   
149  1   
150  1   
151  1   
152  1   
153  1   
154  1   
155  1   
156  1   
157  1   
158  1   
159  1   
160  1   
161  1   
162  1   
163  1   
164  1   
165  1   
166  1   
167  1   
168  1   
169  1   
170  1   
171  1   
172  1   
173  1   
174  1   
175  1   
176  1   
177  1   
178  1   
179  1   
180  1   
181  1   
182  1   
183  1   
184  1   
185  1   
186  1   
187  1   
188  1   
189  1   
190  1   
191  1   
192  1   
193  1   
194  1   
195  1   
196  1   
197  1   
198  1   
199  1   
200  1   
201  1   
202  1   
203  1   
204  1   
205  1   
206  1   
207  1   
208  1   
209  1   
210  1   
211  1   
212  1   
213  1   
214  1   
215  1   
216  1   
217  1   
218  1   
219  1   
220  1   
221  1   
222  1   
223  1   
224  1   
225  1   
226  1   
227  1   
228  1   
229  1   
230  1   
231  1   
232  1   
233  1   
234  1   
235  1   
236  1   
237  1   
238  1   
239  1   
240  1   
241  1   
242  1   
243  1   
244  1   
245  1   
246  1   
247  1   
248  1   
249  1   
250  1   
251  1   
252  1   
253  1   
254  1   
255  1   
256  1   
257  1   
258  1   
259  1   
260  1   
261  1   
262  1   
263  1   
264  1   
265  1   
266  1   
267  1   
268  1   
269  1   
270  1   
271  1   
272  1   
273  1   
274  1   
275  1   
276  1   
277  1   
278  1   
279  1   
280  1   
281  1   
282  1   
283  1   
284  1   
285  1   
286  1   
287  1   
288  1   
289  1   
290  1   
291  1   
292  1   
293  1   
294  1   
295  1   
296  1   
297  1   
298  1   
299  1   
300  1   
301  1   
302  1   
303  1   
304  1   
305  1   
306  1   
307  1   
308  1   
309  1   
310  1   
311  1   
312  1   
313  1   
314  1   
315  1   
316  1   
317  1   
318  1   
319  1   
320  1   
321  1   
322  1   
323  1   
324  1   
325  1   
326  1   
327  1   
328  1   
329  1   
330  1   
331  1   
332  1   
333  1   
334  1   
335  1   
336  1   
337  1   
338  1   
339  1   
340  1   
341  1   
342  1   
343  1   
344  1   
345  1   
346  1   
347  1   
348  1   
349  1   
350  1   
351  1   
352  1   
353  1   
354  1   
355  1   
356  1   
357  1   
358  1   
359  1   
360  1   
361  1   
362  1   
363  1   
364  1   
365  1   
366  1   
367  1   
368  1   
369  1   
370  1   
371  1   
372  1   
373  1   
374  1   
375  1   
376  1   
377  1   
378  1   
379  1   
380  1   
381  1   
382  1   
383  1   
384  1   
385  1   
386  1   
387  1   
388  1   
389  1   
390  1   
391  1   
392  1   
393  1   
394  1   
395  1   
396  1   
397  1   
398  1   
399  1   
400  1   
401  1   
402  1   
403  1   
404  1   
405  1   
406  1   
407  1   
408  1   
409  1   
410  1   
411  1   
412  1   
413  1   
414  1   
415  1   
416  1   
417  1   
418  1   
419  1   
420  1   
421  1   
422  1   
423  1   
424  1   
425  1   
426  1   
427  1   
428  1   
429  1   
430  1   
431  1   
432  1   
433  1   
434  1   
435  1   
436  1   
437  1   
438  1   
439  1   
440  1   
441  1   
442  1   
443  1   
444  1   
445  1   
446  1   
447  1   
448  1   
449  1   
450  1   
451  1   
452  1   
453  1   
454  1   
455  1   
456  1   
457  1   
458  1   
459  1   
460  1   
461  1   
462  1   
463  1   
464  1   
465  1   
466  1   
467  1   
468  1   
469  1   
470  1   
471  1   
472  1   
473  1   
474  1   
475  1   
476  1   
477  1   
478  1   
479  1   
480  1   
481  1   
482  1   
483  1   
484  1   
485  1   
486  1   
487  1   
488  1   
489  1   
490  1   
491  1   
492  1   
493  1   
494  1   
495  1   
496  1   
497  1   
498  1   
499  1   
500  1   
501  1   
DEPOT_SECTION
1
-1
EOF
