data/CVRP/cvrplib-Set-XML100/generated_solutions/XML500_1311_01.vrp.sol
Route #1: 175 451 425 288
Route #2: 156 210 450 157
Route #3: 6 95 359 142
Route #4: 243 69 56 105
Route #5: 280 229 454 207
Route #6: 300 344 446 293
Route #7: 163 185 63 435
Route #8: 301 482 462 340
Route #9: 388 267 382 273
Route #10: 406 111 362 110
Route #11: 119 473 386 87
Route #12: 371 100 452 11
Route #13: 440 494 323 200
Route #14: 79 18 302 374
Route #15: 322 131 345 461
Route #16: 199 161 118 275
Route #17: 4 499 240 233
Route #18: 242 423 140 436
Route #19: 490 391 99 269
Route #20: 73 222 356 97
Route #21: 198 88 437 360
Route #22: 380 55 186 270
Route #23: 226 194 78 209
Route #24: 101 235 220 474
Route #25: 324 89 315 60
Route #26: 292 265 227 476
Route #27: 390 195 155 468
Route #28: 366 173 85 249
Route #29: 368 191 384 50
Route #30: 148 236 103 352
Route #31: 132 26 439 414
Route #32: 81 428 372 381
Route #33: 187 116 27 376
Route #34: 383 36 133 413
Route #35: 479 251 179 245
Route #36: 22 154 443 389
Route #37: 122 192 234 224
Route #38: 219 347 365 82
Route #39: 94 64 312 58
Route #40: 456 294 478 311
Route #41: 126 393 277 16
Route #42: 458 8 459 313
Route #43: 290 170 150 48
Route #44: 327 335 486 42
Route #45: 29 387 287 238
Route #46: 410 248 9 420
Route #47: 283 464 394 398
Route #48: 35 320 215 189
Route #49: 316 333 32 421
Route #50: 98 40 363 491
Route #51: 407 326 152 21
Route #52: 361 77 453 197
Route #53: 399 485 274 378
Route #54: 114 72 38 96
Route #55: 24 230 457 204
Route #56: 250 401 255 53
Route #57: 445 434 337 231
Route #58: 244 176 172 412
Route #59: 357 397 258 369
Route #60: 279 127 396 19
Route #61: 149 463 409 147
Route #62: 246 160 351 65
Route #63: 298 20 109 213
Route #64: 216 212 430 331
Route #65: 496 329 208 164
Route #66: 45 433 178 262
Route #67: 202 61 465 263
Route #68: 305 481 259 303
Route #69: 7 314 405 134
Route #70: 70 470 146 306
Route #71: 483 84 493 125
Route #72: 278 121 223 261
Route #73: 31 348 334 418
Route #74: 14 286 130 350
Route #75: 181 136 402 59
Route #76: 253 318 497 51
Route #77: 349 144 455 484
Route #78: 343 180 218 17
Route #79: 260 475 377 54
Route #80: 447 113 239 232
Route #81: 257 205 364 321
Route #82: 104 169 295 498
Route #83: 124 80 158 25
Route #84: 291 330 426 469
Route #85: 41 177 264 93
Route #86: 196 1 358 441
Route #87: 107 373 339 492
Route #88: 416 193 438 460
Route #89: 46 115 276 272
Route #90: 135 403 284 76
Route #91: 159 43 47 102
Route #92: 165 228 367 137
Route #93: 141 467 304 162
Route #94: 182 487 354 12
Route #95: 415 37 92 379
Route #96: 448 309 489 28
Route #97: 417 271 338 472
Route #98: 252 86 256 10
Route #99: 91 466 266 336
Route #100: 167 328 495 404
Route #101: 190 427 225 75
Route #102: 299 33 480 310
Route #103: 442 319 237 143
Route #104: 221 385 106 211
Route #105: 49 184 13 168
Route #106: 375 34 297 5
Route #107: 424 44 203 285
Route #108: 90 108 400 74
Route #109: 444 268 57 247
Route #110: 308 206 174 183
Route #111: 429 153 123 282
Route #112: 254 188 39 342
Route #113: 112 488 68 307
Route #114: 66 2 411 392
Route #115: 325 449 431 30
Route #116: 62 432 129 355
Route #117: 117 422 52 408
Route #118: 3 289 15 332
Route #119: 23 201 395 281
Route #120: 346 128 120 217
Route #121: 500 67 296 139
Route #122: 370 341 477 71
Route #123: 419 166 138 214
Route #124: 83 171 471 151
Route #125: 145 317 353 241
Cost 143735
